p edge 25 25
e 2 11
e 2 19
e 3 10
e 5 15
e 7 23
e 8 15
e 9 14
e 9 15
e 9 23
e 10 13
e 10 23
e 11 16
e 12 15
e 13 16
e 13 23
e 14 25
e 15 20
e 15 23
e 16 18
e 16 24
e 18 19
e 18 25
e 19 22
e 19 25
e 23 24
